TCS_Benchmarks/redos_fix/regexlib2_output_distinct_3349_3348_0_0.smt2
(set-logic QF_S)
(declare-const x String)
(assert (str.in.re x (re.inter  (re.++ (re.*  (re.union (re.union (re.range "\u{09}" "\u{0d}") (re.range "\u{20}" "\u{20}") (re.range "\u{85}" "\u{85}") (re.range "\u{a0}" "\u{a0}")) (re.union (re.range "\u{00}" "\u{08}") (re.range "\u{0e}" "\u{1f}") (re.range "\u{21}" "\u{84}") (re.range "\u{86}" "\u{9f}") (re.range "\u{a1}" "\u{ff}"))) ) (re.*  (re.union  (str.to.re "\u{20}") (re.union  (str.to_re "\u{0A}") (re.union  (str.to_re "\u{0D}")  (str.to_re "\u{09}")))) ))  (re.++ (re.*  (re.union (re.union (re.range "\u{09}" "\u{0d}") (re.range "\u{20}" "\u{20}") (re.range "\u{85}" "\u{85}") (re.range "\u{a0}" "\u{a0}")) (re.union (re.range "\u{00}" "\u{08}") (re.range "\u{0e}" "\u{1f}") (re.range "\u{21}" "\u{84}") (re.range "\u{86}" "\u{9f}") (re.range "\u{a1}" "\u{ff}"))) ) (re.++  (re.++  (str.to.re "\u{2d}")  (str.to.re "\u{2d}")) (re.*  (re.union  (str.to.re "\u{20}") (re.union  (str.to_re "\u{0A}") (re.union  (str.to_re "\u{0D}")  (str.to_re "\u{09}")))) ))) )))
(check-sat)
(get-model)