TCS_Benchmarks/redos_fix/regexlib2_output_distinct_3349_3348_0_0.txt
([\s\S]*)([ \n\r\t]*)
([\s\S]*)(--)([ \n\r\t]*)